NAME : R109.7868.tour
COMMENT : Cost = 0_7868
COMMENT : Found by LKH [Keld Helsgaun] Wed Sep 13 18:34:08 2017
TYPE : TOUR
DIMENSION : 58
TOUR_SECTION
1
29
13
30
4
51
54
6
46
9
19
7
52
8
12
11
33
21
2
57
22
24
40
26
5
58
43
17
45
39
15
44
38
14
56
3
16
42
23
41
27
55
32
20
48
50
37
47
49
18
53
28
31
34
10
36
35
25
-1
EOF
